10
10
45
1 2 14
1 3 91
1 4 39
1 5 46
1 6 26
1 7 79
1 8 26
1 9 94
1 10 37
2 3 10
2 4 4
2 5 26
2 6 27
2 7 65
2 8 87
2 9 68
2 10 36
3 4 18
3 5 18
3 6 3
3 7 11
3 8 8
3 9 65
3 10 80
4 5 4
4 6 67
4 7 6
4 8 14
4 9 25
4 10 85
5 6 27
5 7 59
5 8 52
5 9 98
5 10 15
6 7 56
6 8 40
6 9 75
6 10 51
7 8 75
7 9 31
7 10 93
8 9 61
8 10 25
9 10 97
